jobs 122 
horizon 691 
PRECEDENCE:
1    
2    1
3    1
4    1
5    4
6    3
7    3
8    3
9    4
10    4
11    5
12    8
13    11
14    13
15    12
16    6
17    16
18    14
19    16
20    15
21    7
22    13
23    5
24    12 16
25    13 23
26    2
27    11
28    24
29    28
30    23
31    21
32    26
33    30
34    22
35    26
36    2 8
37    31
38    35
39    24
40    8
41    2
42    24
43    12
44    22
45    43
46    18
47    5
48    35
49    18
50    22
51    27
52    48
53    6
54    35
55    54
56    31 54
57    15
58    33 39
59    19
60    38
61    14
62    42 49
63    38
64    18
65    52 64
66    33
67    30
68    29
69    41 49 67
70    25
71    33
72    36
73    26 72
74    52 66
75    10
76    62
77    32 46
78    70
79    38
80    73 74
81    30
82    63
83    65
84    47
85    59 71 82
86    25
87    50
88    53 87
89    36 83
90    10 77
91    34
92    45 55 75
93    56 80 88
94    43
95    21 91
96    57 81 86
97    55 90 95
98    58
99    49
100    31 60 97
101    20 85
102    43 97
103    67 70
104    84 96
105    69 91 104
106    101
107    51 61 78
108    51 93
109    97 98 103
110    40
111    10
112    76 79 85
113    17 92 111
114    99 100 105
115    101 112 114
116    37 94 108
117    68 89 113
118    106 110 116
119    29 109 115
120    44 102 107
121    9 117 118
122    119 120 121
RESOURCEAVAILABILITY 40
REQUESTS/DURATIONS: 
 1 0 0 
 2 6 2 
 3 6 0 
 4 2 0 
 5 8 9 
 6 10 0 
 7 4 0 
 8 9 8 
 9 8 2 
 10 10 10 
 11 1 0 
 12 9 5 
 13 5 7 
 14 8 2 
 15 2 0 
 16 9 0 
 17 8 7 
 18 3 5 
 19 10 5 
 20 2 6 
 21 6 3 
 22 9 0 
 23 4 5 
 24 9 10 
 25 8 0 
 26 3 10 
 27 1 5 
 28 4 0 
 29 2 4 
 30 6 2 
 31 10 3 
 32 6 4 
 33 8 10 
 34 4 8 
 35 10 6 
 36 3 0 
 37 1 0 
 38 2 10 
 39 2 3 
 40 1 10 
 41 7 8 
 42 6 0 
 43 3 6 
 44 5 6 
 45 6 0 
 46 9 0 
 47 5 7 
 48 10 0 
 49 4 9 
 50 5 10 
 51 9 0 
 52 6 0 
 53 8 0 
 54 8 10 
 55 1 2 
 56 5 0 
 57 2 5 
 58 5 0 
 59 5 1 
 60 3 3 
 61 2 0 
 62 4 0 
 63 7 0 
 64 1 5 
 65 6 0 
 66 10 1 
 67 9 0 
 68 5 7 
 69 1 6 
 70 2 5 
 71 8 0 
 72 1 10 
 73 3 6 
 74 7 0 
 75 4 0 
 76 1 0 
 77 4 0 
 78 3 7 
 79 6 7 
 80 9 0 
 81 5 6 
 82 6 2 
 83 4 0 
 84 4 5 
 85 10 8 
 86 3 7 
 87 7 9 
 88 7 3 
 89 7 0 
 90 5 9 
 91 4 9 
 92 9 0 
 93 8 0 
 94 3 1 
 95 10 0 
 96 10 6 
 97 2 0 
 98 9 7 
 99 10 1 
100 9 3 
101 4 0 
102 10 9 
103 8 6 
104 6 1 
105 2 9 
106 7 1 
107 6 8 
108 9 9 
109 3 0 
110 10 6 
111 10 0 
112 9 10 
113 4 4 
114 5 10 
115 1 0 
116 6 7 
117 3 8 
118 10 9 
119 5 7 
120 9 10 
121 8 0 
122 0 0 
